Route #1: 0 28 5 6 41 43 11 19 26 10 0
Route #2: 0 39 30 1 9 32 14 38 35 0
Route #3: 0 13 2 15 37 7 34 44 0
Route #4: 0 23 18 27 31 20 4 21 22 12 40 42 0
Route #5: 0 8 29 16 33 25 3 24 36 17 0
Cost 1101:
